&FORCE_EVAL
  METHOD        QUICKSTEP
  STRESS_TENSOR        ANALYTICAL
  &DFT        
    BASIS_SET_FILE_NAME        BASIS_MOLOPT
    CHARGE        0
    MULTIPLICITY        1
    POTENTIAL_FILE_NAME        GTH_POTENTIALS
    &MGRID        
      CUTOFF      200
      NGRIDS      4
      REL_CUTOFF      60
    &END MGRID        
    &QS        
      EPS_DEFAULT       1e-08
      EXTRAPOLATION       ASPC
      METHOD       GPW
    &END QS        
    &POISSON        
      PERIODIC       XYZ
      &EWALD        
      &END EWALD        
    &END POISSON        
    &PRINT         
      &E_DENSITY_CUBE       OFF
      &END E_DENSITY_CUBE       
    &END PRINT        
    &SCF        
      EPS_SCF       1e-06
      MAX_SCF       20
      SCF_GUESS       RESTART
      &OT       .TRUE. 
        MINIMIZER       DIIS
        PRECONDITIONER       FULL_SINGLE_INVERSE
      &END OT        
      &OUTER_SCF       .TRUE. 
        EPS_SCF       1e-06
        MAX_SCF       10
      &END OUTER_SCF        
      &PRINT        
        DM_RESTART_WRITE       .TRUE.
        &RESTART       OFF
      &END RESTART   
      &END PRINT       
    &END SCF        
    &XC        
      &XC_FUNCTIONAL       PBE 
      &END XC_FUNCTIONAL     
      &VDW_POTENTIAL        
        POTENTIAL_TYPE       PAIR_POTENTIAL
        &PAIR_POTENTIAL        
          CALCULATE_C9_TERM       .TRUE.
          EPS_CN       1e-06
          LONG_RANGE_CORRECTION       .TRUE.
          PARAMETER_FILE_NAME       dftd3.dat
          REFERENCE_C9_TERM       .TRUE.
          REFERENCE_FUNCTIONAL       PBE
          R_CUTOFF       12
          TYPE       DFTD3
        &END PAIR_POTENTIAL        
      &END VDW_POTENTIAL        
      &XC_GRID        
          XC_DERIV       SPLINE2
          XC_SMOOTH_RHO       NONE
      &END XC_GRID        
    &END XC        
  &END DFT        
  &SUBSYS        
    &CELL        
      ABC       10.0 10.0 10.0
      ALPHA_BETA_GAMMA       90.0 90.0 90.0
      PERIODIC       XYZ
      SYMMETRY       CUBIC
      &CELL_REF        
        ABC       10.0 10.0 10.0
      &END CELL_REF        
    &END CELL        
    &COORD        
      @INCLUDE       NH3_NVT_GEMC_box1_initial.xyz
    &END COORD        
    &KIND      H
      BASIS_SET       DZVP-MOLOPT-GTH
      POTENTIAL       GTH-PBE
    &END KIND        
    &KIND      N
      BASIS_SET       DZVP-MOLOPT-GTH
      POTENTIAL       GTH-PBE
    &END KIND        
    &TOPOLOGY        
      CONN_FILE_FORMAT       MOL_SET
      &MOL_SET       
        &MOLECULE       
          CONN_FILE_NAME       ammonia_bias.psf
          NMOL       49
        &END MOLECULE       
      &END MOL_SET       
    &END TOPOLOGY       
  &END SUBSYS        
&END FORCE_EVAL        
&GLOBAL
  RUN_TYPE     MC
  PROJECT      NH3_NVT_GEMC
  PRINT_LEVEL  LOW
  SEED  1
&END GLOBAL
&MOTION
  &MC
    &AVBMC
      AVBMC_ATOM        1
      AVBMC_RMAX        1
      AVBMC_RMIN        1
      PBIAS        1
    &END AVBMC
    &MAX_DISPLACEMENTS
      &BOX_DISPLACEMENTS
        RMVOLUME        100.5
      &END BOX_DISPLACEMENTS
      &MOL_DISPLACEMENTS
        RMANGLE        3.0
        RMBOND        0.074
        RMDIHEDRAL        3.0
        RMROT        26.0
        RMTRANS        0.38
      &END MOL_DISPLACEMENTS
    &END MAX_DISPLACEMENTS
    &MOVE_PROBABILITIES
      &BOX_PROBABILITIES
        PMHMC_BOX        1.0
        PMVOL_BOX        1.0
      &END BOX_PROBABILITIES
      &MOL_PROBABILITIES
        PMAVBMC_MOL        1
        PMROT_MOL        1
        PMSWAP_MOL        1
        PMTRAION_MOL        1
        PMTRANS_MOL        1
      &END MOL_PROBABILITIES
      PMAVBMC        0
      PMCLTRANS        0.0
      PMHMC        0
      PMSWAP        0.4
      PMTRAION        0.5
      PMTRANS        0.75
      PMVOLUME        0.05
    &END MOVE_PROBABILITIES
    &MOVE_UPDATES
      IUPTRANS        20
      IUPVOLUME        20
    &END MOVE_UPDATES
    BOX2_FILE_NAME        GEMC_NVT_box2.inp
    ENSEMBLE        GEMC_NVT
    ETA        0.0
    IPRINT        1
    LBIAS        TRUE
    LSTOP        FALSE
    NMOVES        8
    NSTEP        1000
    NSWAPMOVES        640
    PRESSURE        1.0
    RESTART        FALSE
    RESTART_FILE_NAME        mc_restart_1
    TEMPERATURE        298
  &END MC
  &MD
    &THERMOSTAT       
    &END THERMOSTAT       
    &AVERAGES       
    &END AVERAGES       
    &PRINT       
      &ENERGY       
        &EACH       
        &END EACH       
      &END ENERGY       
      &PROGRAM_RUN_INFO       
        &EACH       
        &END EACH       
      &END PROGRAM_RUN_INFO     
    &END PRINT       
  &END MD
 
  &CONSTRAINT
    &FIXED_ATOMS      
    &END FIXED_ATOMS       
  &END CONSTRAINT
 
  &PRINT 
  &END PRINT 
  &GEO_OPT 
  &END GEO_OPT 
&END MOTION 
