&FORCE_EVAL
  METHOD        FIST
  &MM        
    &FORCEFIELD      
      &NONBONDED
        &LENNARD-JONES
          atoms Ar Ar
          EPSILON [kcalmol]  0.152073
          SIGMA   [angstrom] 3.1507
          RCUT    [angstrom] 11.4
        &END LENNARD-JONES
        &LENNARD-JONES
          atoms Kr Kr
          EPSILON [kcalmol] 0.0836
          SIGMA [angstrom] 1.775
          RCUT  [angstrom] 11.4
        &END LENNARD-JONES
        &LENNARD-JONES
          atoms Ar Kr
          EPSILON [kcalmol]  0.04598
          SIGMA   [angstrom] 0.400
          RCUT    [angstrom] 11.4
        &END LENNARD-JONES
      &END NONBONDED
  
      &SPLINE        
        EMAX_SPLINE        10000
      &END SPLINE        
    &END FORCEFIELD        
    &POISSON       
      &EWALD        
        EWALD_ACCURACY        1e-06
        EWALD_TYPE        EWALD
        GMAX        25
      &END EWALD        
    &END POISSON        
  &END MM        
  &DFT        
    &MGRID        
    &END MGRID        
    &QS        
    &END QS        
    &POISSON        
      &EWALD        
      &END EWALD        
    &END POISSON        
    &PRINT         
    &END PRINT        
    &SCF        
    &END SCF        
    &XC        
      &VDW_POTENTIAL        
        &PAIR_POTENTIAL        
        &END PAIR_POTENTIAL        
      &END VDW_POTENTIAL        
      &XC_GRID        
      &END XC_GRID        
    &END XC        
  &END DFT        
  &SUBSYS        
    &CELL        
      ABC       10 10 10
      PERIODIC       XYZ
      SYMMETRY       CUBIC
    &END CELL        
    &COORD        
      @INCLUDE       bias_coord.xyz
    &END COORD        
    &TOPOLOGY        
      CONN_FILE_FORMAT       MOL_SET
      &MOL_SET       
        &MOLECULE       
          CONN_FILE_NAME       argon_conn.psf
          NMOL       1
        &END MOLECULE       
        &MOLECULE       
          CONN_FILE_NAME       krypton_conn.psf
          NMOL       1
        &END MOLECULE       
      &END MOL_SET       
    &END TOPOLOGY       
  &END SUBSYS        
&END FORCE_EVAL        
&GLOBAL
  RUN_TYPE     MC
  PROJECT      bias_template
  PRINT_LEVEL  HIGH
&END GLOBAL
&MOTION
  &MC
    &AVBMC
      AVBMC_ATOM        1 1
      AVBMC_RMAX        5.0 5
      AVBMC_RMIN        1.0 1
      PBIAS        0.5 0.5
    &END AVBMC
    &MAX_DISPLACEMENTS
      &BOX_DISPLACEMENTS
        RMVOLUME        100.5
      &END BOX_DISPLACEMENTS
      &MOL_DISPLACEMENTS
        RMANGLE        3.0 3
        RMBOND        0.074 1
        RMDIHEDRAL        3.0 1
        RMROT        26.0 1
        RMTRANS        0.38 1
      &END MOL_DISPLACEMENTS
    &END MAX_DISPLACEMENTS
    &MOVE_PROBABILITIES
      &BOX_PROBABILITIES
        PMHMC_BOX        1.0
        PMVOL_BOX        1.0
      &END BOX_PROBABILITIES
      &MOL_PROBABILITIES
        PMAVBMC_MOL        1 1
        PMROT_MOL        1.0 1
        PMSWAP_MOL        1.0 1
        PMTRAION_MOL        1.0 1
        PMTRANS_MOL        1.0 1
      &END MOL_PROBABILITIES
      PMAVBMC        0.0
      PMHMC        0.0
      PMSWAP        0.0
      PMTRAION        0.2
      PMTRANS        0.6
      PMVOLUME        0.02
    &END MOVE_PROBABILITIES
    &MOVE_UPDATES
      IUPTRANS        100
      IUPVOLUME        100
    &END MOVE_UPDATES
    ENSEMBLE        TRADITIONAL
    ETA        0.0
    IPRINT        1
    LBIAS        TRUE
    LSTOP        FALSE
    NMOVES        8
    NSTEP        1
    NSWAPMOVES        640
    PRESSURE        1.0
    RESTART        FALSE
    TEMPERATURE        298
  &END MC
  &MD
    &THERMOSTAT       
    &END THERMOSTAT       
    &AVERAGES       
    &END AVERAGES       
    &PRINT       
      &ENERGY       
        &EACH       
        &END EACH       
      &END ENERGY       
      &PROGRAM_RUN_INFO       
        &EACH       
        &END EACH       
      &END PROGRAM_RUN_INFO     
    &END PRINT       
  &END MD
 
  &CONSTRAINT
    &FIXED_ATOMS      
    &END FIXED_ATOMS       
  &END CONSTRAINT
 
  &PRINT 
  &END PRINT 
  &GEO_OPT 
  &END GEO_OPT 
&END MOTION 
